CRYSTAL
PRIMVEC
 5.27563036000000 0.00000000000000 0.00000000000000
 2.63781518000000 4.56882991273644 0.00000000000000
 2.63781518000000 1.52294330424548 4.30753415117851
PRIMCOORD
 6 1
 14     7.91344554000000     4.56882991273644     3.23065061338388
 14     5.27563036000000     3.04588660849096     2.15376707558925
  8     5.27563036000000     3.04588660849096     0.53844176889731
  8     5.27563036000000     1.52294330424548     2.69220884448657
  8     6.59453795000000     3.80735826061370     2.69220884448657
  8     3.95672277000000     3.80735826061370     2.69220884448657
