CRYSTAL
PRIMVEC
 5.71920300000000 0.00000000000000 0.00000000000000
 0.00355000047475 5.72337899903306 0.00000000000000
 -2.83119300137489 -2.85412900093876 6.08806000295948
PRIMCOORD
 8 1
 39     5.70224379975579     0.00320631313762     0.00789621382384
 39     0.03793853431590     2.85969920643735     3.06135662024816
 47     0.01355569969071     0.04255510953150     6.05961049856565
 47     2.83730513169034    -0.01611651125331     3.07213857451340
 34     2.88669718161634     2.85403939057623     3.21162820530121
 34    -0.00723732667087    -0.00047285003939     2.89834881366892
 34     0.01778442652384     2.88929302812077     5.94729796763105
 34    -0.00782832751839     2.86591207621472     0.17179896522351
