CRYSTAL
PRIMVEC
 10.51480000000000 0.00000000000000 0.00000000000000
 0.00000000000000 10.51480000000000 0.00000000000000
 0.00000000000000 0.00000000000000 10.51480000000000
PRIMCOORD
 54 1
 13     0.00000000000000     3.13069841679056     1.12198500000203
 14     0.00000000000000     7.38410158320944     1.12198500000203
 14     0.00000000000000     3.13069841679056     9.39281499999797
 14     0.00000000000000     7.38410158320944     9.39281499999797
 14     1.12198500000203     0.00000000000000     3.13069841679056
 14     1.12198500000203     0.00000000000000     7.38410158320944
 13     9.39281499999797     0.00000000000000     3.13069841679056
 14     9.39281499999797     0.00000000000000     7.38410158320944
 14     3.13069841679056     1.12198500000203     0.00000000000000
 14     7.38410158320944     1.12198500000203     0.00000000000000
 14     3.13069841679056     9.39281499999797     0.00000000000000
 14     7.38410158320944     9.39281499999797     0.00000000000000
 14     8.38809841679056     5.25740000000000     4.13541499999797
 14     2.12670158320944     5.25740000000000     4.13541499999797
 13     8.38809841679056     5.25740000000000     6.37938500000203
 13     2.12670158320944     5.25740000000000     6.37938500000203
 14     5.25740000000000     6.37938500000203     2.12670158320944
 13     5.25740000000000     6.37938500000203     8.38809841679056
 13     5.25740000000000     4.13541499999797     2.12670158320944
 14     5.25740000000000     4.13541499999797     8.38809841679056
 14     6.37938500000203     8.38809841679056     5.25740000000000
 14     6.37938500000203     2.12670158320944     5.25740000000000
 13     4.13541499999797     8.38809841679056     5.25740000000000
 14     4.13541499999797     2.12670158320944     5.25740000000000
 14     1.94249033755061     1.94249033755061     1.94249033755061
 14     8.57230966244939     8.57230966244939     1.94249033755061
 14     8.57230966244939     1.94249033755061     8.57230966244939
 13     1.94249033755061     8.57230966244939     8.57230966244939
 14     7.19989033755061     7.19989033755061     3.31490966244939
 13     3.31490966244939     3.31490966244939     3.31490966244939
 13     7.19989033755061     3.31490966244939     7.19989033755061
 14     3.31490966244939     7.19989033755061     7.19989033755061
 13     8.57230966244939     8.57230966244939     8.57230966244939
 13     1.94249033755061     1.94249033755061     8.57230966244939
 14     1.94249033755061     8.57230966244939     1.94249033755061
 14     8.57230966244939     1.94249033755061     1.94249033755061
 14     3.31490966244939     3.31490966244939     7.19989033755061
 14     7.19989033755061     7.19989033755061     7.19989033755061
 14     3.31490966244939     7.19989033755061     3.31490966244939
 14     7.19989033755061     3.31490966244939     3.31490966244939
 13     2.62870000000000     0.00000000000000     5.25740000000000
 13     7.88610000000000     0.00000000000000     5.25740000000000
 13     5.25740000000000     2.62870000000000     0.00000000000000
 14     5.25740000000000     7.88610000000000     0.00000000000000
 14     0.00000000000000     5.25740000000000     2.62870000000000
 13     0.00000000000000     5.25740000000000     7.88610000000000
 56     2.62870000000000     5.25740000000000     0.00000000000000
 56     7.88610000000000     5.25740000000000     0.00000000000000
 56     0.00000000000000     2.62870000000000     5.25740000000000
 56     0.00000000000000     7.88610000000000     5.25740000000000
 56     5.25740000000000     0.00000000000000     2.62870000000000
 56     5.25740000000000     0.00000000000000     7.88610000000000
 56     0.00000000000000     0.00000000000000     0.00000000000000
 56     5.25740000000000     5.25740000000000     5.25740000000000
